# Solution for model GasLib-40
# Objective value = 1.0185312961448702e+01
loadshed[innode_1] 0
loadshed[innode_2] 0
loadshed[innode_3] 0
loadshed[innode_4] 0
loadshed[innode_5] 0
loadshed[innode_6] 0
loadshed[innode_7] 0
loadshed[innode_8] 0
loadshed[source_1] -2.1805667964853548e-01
loadshed[source_2] -4.7470247688871980e-02
loadshed[source_3] 0.32995412111944
loadshed[sink_1] 0
loadshed[sink_2] 0
loadshed[sink_3] 0
loadshed[sink_4] 0
loadshed[sink_5] 0
loadshed[sink_6] 0
loadshed[sink_7] 0
loadshed[sink_8] 0
loadshed[sink_9] 0
loadshed[sink_10] 0
loadshed[sink_11] 0
loadshed[sink_12] 6.2279620655992052e-01
loadshed[sink_13] 0
loadshed[sink_14] 0
loadshed[sink_15] 0
loadshed[sink_16] 0
loadshed[sink_17] 0
loadshed[sink_18] 0
loadshed[sink_19] 0
loadshed[sink_20] 0
loadshed[sink_21] 0
loadshed[sink_22] 0
loadshed[sink_23] 0
loadshed[sink_24] 0
loadshed[sink_25] 0
loadshed[sink_26] 0
loadshed[sink_27] 0
loadshed[sink_28] 0
loadshed[sink_29] 0
flow[source_1,sink_3] 1.9256291883471465e+02
flow[innode_1,sink_16] 1.6354166666666970e+01
flow[innode_6,sink_13] 8.5514275505835133e+00
flow[sink_13,sink_14] -7.8027391160831545e+00
flow[sink_14,sink_10] -2.4156905782750073e+01
flow[sink_25,sink_26] 1.5008718799947439e+02
flow[sink_26,sink_9] 1.3373302133280762e+02
flow[sink_9,sink_18] 1.1737885466614095e+02
flow[sink_26,sink_4] 0
flow[sink_4,sink_20] -3.3726266688155086e+01
flow[sink_18,sink_6] 1.0102468799947428e+02
flow[sink_25,innode_8] -1.5985458550137827e+02
flow[sink_6,sink_7] 5.1962187999473826e+01
flow[sink_6,sink_22] 3.2708333333333641e+01
flow[sink_7,sink_24] 3.8877187038551305e+01
flow[sink_22,sink_1] 1.6354166666666970e+01
flow[sink_24,sink_21] 2.2523020371884634e+01
flow[sink_21,sink_12] 6.1688537052179671e+00
flow[sink_7,sink_5] -3.26916570574393
flow[sink_5,sink_17] -1.9623332372410573e+01
flow[sink_17,sink_4] -1.7372100021488418e+01
flow[sink_17,sink_8] -1.8605399017588748e+01
flow[sink_3,sink_23] 16.3541666666697
flow[sink_8,sink_20] -3.4959565684255416e+01
flow[sink_25,sink_20] 8.5039999039077287e+01
flow[sink_25,sink_15] -1.0017819575442395e+02
flow[sink_15,sink_29] -6.4716474646071916e+01
flow[sink_29,sink_28] 1.6354166666667879e+01
flow[sink_29,sink_2] 6.8170054441685267e+01
flow[sink_2,sink_15] 5.1815887775018595e+01
flow[sink_29,innode_7] -1.6559486242109145e+02
flow[innode_4,sink_19] 4.0511322034695525e+01
flow[sink_19,innode_3] 7.3219405782750144e+01
flow[innode_4,innode_5] 6.5416417081387451e+01
flow[sink_27,innode_5] -6.5416417081387451e+01
flow[sink_27,sink_19] 4.9062250414720786e+01
flow[sink_10,sink_11] 3.2708333333333641e+01
flow[sink_10,innode_2] 0
flow[sink_10,innode_3] -7.3219405782750144e+01
flow[innode_6,sink_25] -8.5514275505835133e+00
flow[sink_11,innode_1] 1.6354166666666970e+01
flow[sink_19,innode_2] 0
flow[source_3,innode_4] 1.0592773911608298e+02
flow[source_2,innode_7] 1.6559486242109145e+02
flow[sink_3,innode_8] 1.5985458550137827e+02
pressure[innode_1] 7.5159989906387921e+01
pressure[innode_2] 7.9372033120937616e+01
pressure[innode_3] 7.9209897038029979e+01
pressure[innode_4] 81.01325
pressure[innode_5] 8.0968253138913070e+01
pressure[innode_6] 7.4202282415005428e+01
pressure[innode_7] 81.01325
pressure[innode_8] 8.0369585724036853e+01
pressure[source_1] 81.01325
pressure[source_2] 81.01325
pressure[source_3] 81.01325
pressure[sink_1] 4.6581609042351147e+01
pressure[sink_2] 7.4857411733783380e+01
pressure[sink_3] 8.0369585724036853e+01
pressure[sink_4] 5.1454690923037361e+01
pressure[sink_5] 4.9328990122721009e+01
pressure[sink_6] 4.8682686652738518e+01
pressure[sink_7] 4.7969369670615691e+01
pressure[sink_8] 5.1492816583516891e+01
pressure[sink_9] 5.5627463423324635e+01
pressure[sink_10] 7.5311691213991466e+01
pressure[sink_11] 7.5159989906387921e+01
pressure[sink_12] 1.0132500000000002e+00
pressure[sink_13] 7.4155139823995356e+01
pressure[sink_14] 74.16910349029
pressure[sink_15] 7.4688244280235665e+01
pressure[sink_16] 7.4138340071570241e+01
pressure[sink_17] 5.0790786542945206e+01
pressure[sink_18] 5.1380346612349484e+01
pressure[sink_19] 7.9372033120937616e+01
pressure[sink_20] 5.3929006665861777e+01
pressure[sink_21] 3.2084657709949531e+00
pressure[sink_22] 4.7645378184706153e+01
pressure[sink_23] 8.0204867712377080e+01
pressure[sink_24] 3.4578872952319206e+00
pressure[sink_25] 7.4202282415005428e+01
pressure[sink_26] 6.3631729905520018e+01
pressure[sink_27] 8.0425417753679184e+01
pressure[sink_28] 7.6288953873746848e+01
pressure[sink_29] 7.6584236147364024e+01
interdiction[source_1,sink_3] 0
interdiction[innode_1,sink_16] 0
interdiction[innode_6,sink_13] 0
interdiction[sink_13,sink_14] 0
interdiction[sink_14,sink_10] 0
interdiction[sink_25,sink_26] 0
interdiction[sink_26,sink_9] 0
interdiction[sink_9,sink_18] 0
interdiction[sink_26,sink_4] 1
interdiction[sink_4,sink_20] 0
interdiction[sink_18,sink_6] 0
interdiction[sink_25,innode_8] 0
interdiction[sink_6,sink_7] 0
interdiction[sink_6,sink_22] 0
interdiction[sink_7,sink_24] 0
interdiction[sink_22,sink_1] 0
interdiction[sink_24,sink_21] 0
interdiction[sink_21,sink_12] 0
interdiction[sink_7,sink_5] 0
interdiction[sink_5,sink_17] 0
interdiction[sink_17,sink_4] 0
interdiction[sink_17,sink_8] 0
interdiction[sink_3,sink_23] 0
interdiction[sink_8,sink_20] 0
interdiction[sink_25,sink_20] 0
interdiction[sink_25,sink_15] 0
interdiction[sink_15,sink_29] 0
interdiction[sink_29,sink_28] 0
interdiction[sink_29,sink_2] 0
interdiction[sink_2,sink_15] 0
interdiction[sink_29,innode_7] 0
interdiction[innode_4,sink_19] 0
interdiction[sink_19,innode_3] 0
interdiction[innode_4,innode_5] 0
interdiction[sink_27,innode_5] 0
interdiction[sink_27,sink_19] 0
interdiction[sink_10,sink_11] 0
interdiction[sink_10,innode_2] 1
interdiction[sink_10,innode_3] 0
interdiction[innode_6,sink_25] 0
interdiction[sink_11,innode_1] 0
interdiction[sink_19,innode_2] 0
interdiction[source_3,innode_4] 0
interdiction[source_2,innode_7] 0
interdiction[sink_3,innode_8] 0
WCcheckFlow[source_1,sink_3] 39
WCcheckFlow[innode_1,sink_16] 1
WCcheckFlow[innode_6,sink_13] 13
WCcheckFlow[sink_13,sink_14] 12
WCcheckFlow[sink_14,sink_10] 11
WCcheckFlow[sink_25,sink_26] 15
WCcheckFlow[sink_26,sink_9] 14
WCcheckFlow[sink_9,sink_18] 13
WCcheckFlow[sink_26,sink_4] 0
WCcheckFlow[sink_4,sink_20] 1
WCcheckFlow[sink_18,sink_6] 12
WCcheckFlow[sink_25,innode_8] -36
WCcheckFlow[sink_6,sink_7] 9
WCcheckFlow[sink_6,sink_22] 2
WCcheckFlow[sink_7,sink_24] 3
WCcheckFlow[sink_22,sink_1] 1
WCcheckFlow[sink_24,sink_21] 2
WCcheckFlow[sink_21,sink_12] 1
WCcheckFlow[sink_7,sink_5] 5
WCcheckFlow[sink_5,sink_17] 4
WCcheckFlow[sink_17,sink_4] 2
WCcheckFlow[sink_17,sink_8] 1
WCcheckFlow[sink_3,sink_23] 1
WCcheckFlow[sink_8,sink_20] 0
WCcheckFlow[sink_25,sink_20] 0
WCcheckFlow[sink_25,sink_15] 6
WCcheckFlow[sink_15,sink_29] 5
WCcheckFlow[sink_29,sink_28] 1
WCcheckFlow[sink_29,sink_2] 1
WCcheckFlow[sink_2,sink_15] 0
WCcheckFlow[sink_29,innode_7] 2
WCcheckFlow[innode_4,sink_19] -4
WCcheckFlow[sink_19,innode_3] -6
WCcheckFlow[innode_4,innode_5] 2
WCcheckFlow[sink_27,innode_5] -1
WCcheckFlow[sink_27,sink_19] 0
WCcheckFlow[sink_10,sink_11] 3
WCcheckFlow[sink_10,innode_2] 0
WCcheckFlow[sink_10,innode_3] 7
WCcheckFlow[innode_6,sink_25] -14
WCcheckFlow[sink_11,innode_1] 2
WCcheckFlow[sink_19,innode_2] 1
WCcheckFlow[source_3,innode_4] -1
WCcheckFlow[source_2,innode_7] -1
WCcheckFlow[sink_3,innode_8] 37
